NAME : P = NP
TYPE : TSP
DIMENSION : 59
EDGE_WEIGHT_TYPE : EUC_2D
NODE_COORD_SECTION
0 3 709
1 241 428
2 533 590
3 223 732
4 51 5
5 369 23
6 394 32
7 348 24
8 251 199
9 97 10
10 25 163
11 45 29
12 33 288
13 119 52
14 615 128
15 471 123
16 141 423
17 98 263
18 268 358
19 336 270
20 14 182
21 331 51
22 444 339
23 83 76
24 127 48
25 98 625
26 207 50
27 185 60
28 70 12
29 1 226
30 159 509
31 43 488
32 114 680
33 125 117
34 181 157
35 713 179
36 236 148
37 170 141
38 99 801
39 126 592
40 337 350
41 76 142
42 86 302
43 186 542
44 238 379
45 396 4
46 723 388
47 521 7
48 166 637
49 414 289
50 114 626
51 118 5
52 390 868
53 76 201
54 465 461
55 421 151
56 208 222
57 62 20
58 49 102